106413
0,9,28,44,45,53,20,70,79,61,69,13,66,75,25,35,65,19,8,76,57,73,16,55,50,71,80,59,46,48,33,56,42,2,11,22,54,1,29,37,15,26,6,32,10,39,31,81,74,34,78,5,60,14,41,24,68,77,40,51,38,62,82,27,7,52,58,67,43,21,4,18,47,23,30,3,49,64,17,36,12,72,63,0